************************************************************************
file with basedata            : mm34_.bas
initial value random generator: 855860796
************************************************************************
projects                      :  1
jobs (incl. supersource/sink ):  12
horizon                       :  77
RESOURCES
  - renewable                 :  2   R
  - nonrenewable              :  2   N
  - doubly constrained        :  0   D
************************************************************************
PROJECT INFORMATION:
pronr.  #jobs rel.date duedate tardcost  MPM-Time
    1     10      0       22        5       22
************************************************************************
PRECEDENCE RELATIONS:
jobnr.    #modes  #successors   successors
   1        1          3           2   3   4
   2        3          3           5   6   9
   3        3          1          11
   4        3          3           9  10  11
   5        3          1           7
   6        3          1           8
   7        3          1           8
   8        3          2          10  11
   9        3          1          12
  10        3          1          12
  11        3          1          12
  12        1          0        
************************************************************************
REQUESTS/DURATIONS:
jobnr. mode duration  R 1  R 2  N 1  N 2
------------------------------------------------------------------------
  1      1     0       0    0    0    0
  2      1     7       8    8    0    2
         2    10       8    7    8    0
         3    10       8    7    0    2
  3      1     1      10   10    0    8
         2     6       9    6    9    0
         3     7       9    4    0    7
  4      1     1       9    5    0    9
         2     2       4    3    9    0
         3     8       4    2    6    0
  5      1     3       6    4    8    0
         2     5       4    3    0    9
         3     7       3    3    6    0
  6      1     1       9    7    0    6
         2     1       9    8    2    0
         3     5       4    6    1    0
  7      1     4       7    8    5    0
         2     6       6    8    0    3
         3     7       5    5    5    0
  8      1     1       5    6    3    0
         2     5       2    3    0    5
         3    10       2    2    0    4
  9      1     1      10   10    0    5
         2     3       9    8    4    0
         3     7       9    6    0    5
 10      1     1       8    7    0    5
         2     3       7    6    3    0
         3     6       3    6    0    4
 11      1     7       8    9   10    0
         2     7      10    7   10    0
         3    10       6    5   10    0
 12      1     0       0    0    0    0
************************************************************************
RESOURCEAVAILABILITIES:
  R 1  R 2  N 1  N 2
   13   10   36   26
************************************************************************
MAXIMAL LAGS:
from  to  type  delay
    1   12   ES      0
    1    2   ES      0
    2   12   ES      0
    1    3   ES      0
    3   12   ES      0
    1    4   ES      0
    4   12   ES      0
    1    5   ES      0
    5   12   ES      0
    1    6   ES      0
    6   12   ES      0
    1    7   ES      0
    7   12   ES      0
    1    8   ES      0
    8   12   ES      0
    1    9   ES      0
    9   12   ES      0
    1   10   ES      0
   10   12   ES      0
    1   11   ES      0
   11   12   ES      0
    1   12   ES      0
    2    5   SS     -5
    2    5   SE      1
    2    5   ES      8
    2    5   EE      5
    2    6   SS     -6
    2    6   SE    -10
    2    6   ES     -3
    2    6   EE     12
    2    9   SS      2
    2    9   SE     -8
    2    9   ES      3
    2    9   EE      1
    3   11   SS    -12
    3   11   SE     -9
    3   11   ES     -7
    3   11   EE     -8
    4    9   SS     11
    4    9   SE     10
    4    9   ES      2
    4    9   EE      3
    4   10   SS      3
    4   10   SE    -12
    4   10   ES      2
    4   10   EE      6
    4   11   SS     -5
    4   11   SE     -6
    4   11   ES     -3
    4   11   EE      6
    5    7   SS      0
    5    7   SE    -11
    5    7   ES     -2
    5    7   EE    -12
    6    8   SS     -9
    6    8   SE      8
    6    8   ES     10
    6    8   EE      1
    7    8   SS      1
    7    8   SE      3
    7    8   ES     11
    7    8   EE      6
    8   10   SS      7
    8   10   SE     11
    8   10   ES      5
    8   10   EE     -3
    8   11   SS    -11
    8   11   SE      3
   11    8   SE      0
    8   11   ES      0
    8   11   EE      3
************************************************************************
